scripts/mul_formal/model/design_smt2.smt2
; SMT-LIBv2 description generated by Yosys 0.33 (git sha1 2584903a060)
; yosys-smt2-module riscv_mul
(declare-sort |riscv_mul_s| 0)
(declare-fun |riscv_mul_is| (|riscv_mul_s|) Bool)
(declare-fun |riscv_mul#0| (|riscv_mul_s|) Bool) ; \start
; yosys-smt2-input start 1
; yosys-smt2-wire start 1
; yosys-smt2-witness {"offset": 0, "path": ["\\start"], "smtname": "start", "smtoffset": 0, "type": "input", "width": 1}
(define-fun |riscv_mul_n start| ((state |riscv_mul_s|)) Bool (|riscv_mul#0| state))
; yosys-smt2-anyinit riscv_mul#1 64 /home/vatistas/hdl_rampup/sv-learning/rtl/riscv_mul.sv:32.5-58.8
; yosys-smt2-witness {"offset": 0, "path": ["\\running_total"], "smtname": 1, "smtoffset": 0, "type": "init", "width": 64}
(declare-fun |riscv_mul#1| (|riscv_mul_s|) (_ BitVec 64)) ; \running_total
; yosys-smt2-register running_total 64
; yosys-smt2-wire running_total 64
(define-fun |riscv_mul_n running_total| ((state |riscv_mul_s|)) (_ BitVec 64) (|riscv_mul#1| state))
(declare-fun |riscv_mul#2| (|riscv_mul_s|) Bool) ; \rst
; yosys-smt2-input rst 1
; yosys-smt2-wire rst 1
; yosys-smt2-witness {"offset": 0, "path": ["\\rst"], "smtname": "rst", "smtoffset": 0, "type": "input", "width": 1}
(define-fun |riscv_mul_n rst| ((state |riscv_mul_s|)) Bool (|riscv_mul#2| state))
; yosys-smt2-anyinit riscv_mul#3 4 /home/vatistas/hdl_rampup/sv-learning/rtl/riscv_mul.sv:32.5-58.8
; yosys-smt2-witness {"offset": 0, "path": ["\\op_latched"], "smtname": 3, "smtoffset": 0, "type": "init", "width": 4}
(declare-fun |riscv_mul#3| (|riscv_mul_s|) (_ BitVec 4)) ; \op_latched
(define-fun |riscv_mul#4| ((state |riscv_mul_s|)) Bool (= (|riscv_mul#3| state) #b1011)) ; $procmux$89_CMP
(define-fun |riscv_mul#5| ((state |riscv_mul_s|)) Bool (= (|riscv_mul#3| state) #b1010)) ; $procmux$90_CMP
(define-fun |riscv_mul#6| ((state |riscv_mul_s|)) (_ BitVec 32) (ite (|riscv_mul#5| state) ((_ extract 31 0) (|riscv_mul#1| state)) (ite (|riscv_mul#4| state) ((_ extract 63 32) (|riscv_mul#1| state)) #b00000000000000000000000000000000))) ; \result
; yosys-smt2-output result 32
; yosys-smt2-wire result 32
(define-fun |riscv_mul_n result| ((state |riscv_mul_s|)) (_ BitVec 32) (|riscv_mul#6| state))
; yosys-smt2-register op_latched 4
; yosys-smt2-wire op_latched 4
(define-fun |riscv_mul_n op_latched| ((state |riscv_mul_s|)) (_ BitVec 4) (|riscv_mul#3| state))
; yosys-smt2-anyinit riscv_mul#7 32 /home/vatistas/hdl_rampup/sv-learning/rtl/riscv_mul.sv:32.5-58.8
; yosys-smt2-witness {"offset": 0, "path": ["\\op_b_latched"], "smtname": 7, "smtoffset": 0, "type": "init", "width": 32}
(declare-fun |riscv_mul#7| (|riscv_mul_s|) (_ BitVec 32)) ; \op_b_latched
; yosys-smt2-register op_b_latched 32
; yosys-smt2-wire op_b_latched 32
(define-fun |riscv_mul_n op_b_latched| ((state |riscv_mul_s|)) (_ BitVec 32) (|riscv_mul#7| state))
(declare-fun |riscv_mul#8| (|riscv_mul_s|) (_ BitVec 32)) ; \op_b
; yosys-smt2-input op_b 32
; yosys-smt2-wire op_b 32
; yosys-smt2-witness {"offset": 0, "path": ["\\op_b"], "smtname": "op_b", "smtoffset": 0, "type": "input", "width": 32}
(define-fun |riscv_mul_n op_b| ((state |riscv_mul_s|)) (_ BitVec 32) (|riscv_mul#8| state))
; yosys-smt2-anyinit riscv_mul#9 32 /home/vatistas/hdl_rampup/sv-learning/rtl/riscv_mul.sv:32.5-58.8
; yosys-smt2-witness {"offset": 0, "path": ["\\op_a_latched"], "smtname": 9, "smtoffset": 0, "type": "init", "width": 32}
(declare-fun |riscv_mul#9| (|riscv_mul_s|) (_ BitVec 32)) ; \op_a_latched
; yosys-smt2-register op_a_latched 32
; yosys-smt2-wire op_a_latched 32
(define-fun |riscv_mul_n op_a_latched| ((state |riscv_mul_s|)) (_ BitVec 32) (|riscv_mul#9| state))
(declare-fun |riscv_mul#10| (|riscv_mul_s|) (_ BitVec 32)) ; \op_a
; yosys-smt2-input op_a 32
; yosys-smt2-wire op_a 32
; yosys-smt2-witness {"offset": 0, "path": ["\\op_a"], "smtname": "op_a", "smtoffset": 0, "type": "input", "width": 32}
(define-fun |riscv_mul_n op_a| ((state |riscv_mul_s|)) (_ BitVec 32) (|riscv_mul#10| state))
(declare-fun |riscv_mul#11| (|riscv_mul_s|) (_ BitVec 4)) ; \op
; yosys-smt2-input op 4
; yosys-smt2-wire op 4
; yosys-smt2-witness {"offset": 0, "path": ["\\op"], "smtname": "op", "smtoffset": 0, "type": "input", "width": 4}
(define-fun |riscv_mul_n op| ((state |riscv_mul_s|)) (_ BitVec 4) (|riscv_mul#11| state))
; yosys-smt2-anyinit riscv_mul#12 1 /home/vatistas/hdl_rampup/sv-learning/rtl/riscv_mul.sv:32.5-58.8
; yosys-smt2-witness {"offset": 0, "path": ["\\done"], "smtname": 12, "smtoffset": 0, "type": "init", "width": 1}
(declare-fun |riscv_mul#12| (|riscv_mul_s|) (_ BitVec 1)) ; \done
; yosys-smt2-output done 1
; yosys-smt2-register done 1
; yosys-smt2-wire done 1
(define-fun |riscv_mul_n done| ((state |riscv_mul_s|)) Bool (= ((_ extract 0 0) (|riscv_mul#12| state)) #b1))
(declare-fun |riscv_mul#13| (|riscv_mul_s|) Bool) ; \clk
; yosys-smt2-input clk 1
; yosys-smt2-wire clk 1
; yosys-smt2-clock clk posedge
; yosys-smt2-witness {"offset": 0, "path": ["\\clk"], "smtname": "clk", "smtoffset": 0, "type": "posedge", "width": 1}
; yosys-smt2-witness {"offset": 0, "path": ["\\clk"], "smtname": "clk", "smtoffset": 0, "type": "input", "width": 1}
(define-fun |riscv_mul_n clk| ((state |riscv_mul_s|)) Bool (|riscv_mul#13| state))
; yosys-smt2-anyinit riscv_mul#14 1 /home/vatistas/hdl_rampup/sv-learning/rtl/riscv_mul.sv:32.5-58.8
; yosys-smt2-witness {"offset": 0, "path": ["\\busy"], "smtname": 14, "smtoffset": 0, "type": "init", "width": 1}
(declare-fun |riscv_mul#14| (|riscv_mul_s|) (_ BitVec 1)) ; \busy
; yosys-smt2-output busy 1
; yosys-smt2-register busy 1
; yosys-smt2-wire busy 1
(define-fun |riscv_mul_n busy| ((state |riscv_mul_s|)) Bool (= ((_ extract 0 0) (|riscv_mul#14| state)) #b1))
; yosys-smt2-anyinit riscv_mul#15 6 /home/vatistas/hdl_rampup/sv-learning/rtl/riscv_mul.sv:32.5-58.8
; yosys-smt2-witness {"offset": 0, "path": ["\\bit_idx"], "smtname": 15, "smtoffset": 0, "type": "init", "width": 6}
(declare-fun |riscv_mul#15| (|riscv_mul_s|) (_ BitVec 6)) ; \bit_idx
; yosys-smt2-register bit_idx 6
; yosys-smt2-wire bit_idx 6
(define-fun |riscv_mul_n bit_idx| ((state |riscv_mul_s|)) (_ BitVec 6) (|riscv_mul#15| state))
(define-fun |riscv_mul#16| ((state |riscv_mul_s|)) (_ BitVec 1) (bvnot (ite (|riscv_mul#13| state) #b1 #b0))) ; $auto$rtlil.cc:2401:Not$102
; yosys-smt2-assume 0 $auto$formalff.cc:758:execute$103
(define-fun |riscv_mul_u 0| ((state |riscv_mul_s|)) Bool (or (= ((_ extract 0 0) (|riscv_mul#16| state)) #b1) (not true))) ; $auto$formalff.cc:758:execute$103
(define-fun |riscv_mul#17| ((state |riscv_mul_s|)) (_ BitVec 6) (ite (|riscv_mul#0| state) #b000000 (|riscv_mul#15| state))) ; $procmux$65_Y
(define-fun |riscv_mul#18| ((state |riscv_mul_s|)) Bool (= (|riscv_mul#15| state) #b100000)) ; $eq$/home/vatistas/hdl_rampup/sv-learning/rtl/riscv_mul.sv:46$10_Y
(define-fun |riscv_mul#19| ((state |riscv_mul_s|)) Bool (and (or  (= ((_ extract 0 0) (|riscv_mul#14| state)) #b1) false) (or  (|riscv_mul#18| state) false))) ; $logic_and$/home/vatistas/hdl_rampup/sv-learning/rtl/riscv_mul.sv:46$11_Y
(define-fun |riscv_mul#20| ((state |riscv_mul_s|)) (_ BitVec 6) (ite (|riscv_mul#19| state) (|riscv_mul#15| state) (|riscv_mul#17| state))) ; $procmux$68_Y
(define-fun |riscv_mul#21| ((state |riscv_mul_s|)) (_ BitVec 6) (bvadd (|riscv_mul#15| state) #b000001)) ; $add$/home/vatistas/hdl_rampup/sv-learning/rtl/riscv_mul.sv:44$5_Y
(define-fun |riscv_mul#22| ((state |riscv_mul_s|)) Bool (distinct (|riscv_mul#15| state) #b100000)) ; $ne$/home/vatistas/hdl_rampup/sv-learning/rtl/riscv_mul.sv:42$3_Y
(define-fun |riscv_mul#23| ((state |riscv_mul_s|)) Bool (and (or  (= ((_ extract 0 0) (|riscv_mul#14| state)) #b1) false) (or  (|riscv_mul#22| state) false))) ; $logic_and$/home/vatistas/hdl_rampup/sv-learning/rtl/riscv_mul.sv:42$4_Y
(define-fun |riscv_mul#24| ((state |riscv_mul_s|)) (_ BitVec 6) (ite (|riscv_mul#23| state) (|riscv_mul#21| state) (|riscv_mul#20| state))) ; $procmux$71_Y
(define-fun |riscv_mul#25| ((state |riscv_mul_s|)) (_ BitVec 6) (ite (|riscv_mul#2| state) #b000000 (|riscv_mul#24| state))) ; $0\bit_idx[5:0]
(define-fun |riscv_mul#26| ((state |riscv_mul_s|)) (_ BitVec 1) (ite (|riscv_mul#0| state) #b1 (|riscv_mul#14| state))) ; $procmux$76_Y
(define-fun |riscv_mul#27| ((state |riscv_mul_s|)) (_ BitVec 1) (ite (|riscv_mul#19| state) #b0 (|riscv_mul#26| state))) ; $procmux$79_Y
(define-fun |riscv_mul#28| ((state |riscv_mul_s|)) (_ BitVec 1) (ite (|riscv_mul#23| state) (|riscv_mul#14| state) (|riscv_mul#27| state))) ; $procmux$82_Y
(define-fun |riscv_mul#29| ((state |riscv_mul_s|)) (_ BitVec 1) (ite (|riscv_mul#2| state) #b0 (|riscv_mul#28| state))) ; $0\busy[0:0]
(define-fun |riscv_mul#30| ((state |riscv_mul_s|)) (_ BitVec 1) (ite (|riscv_mul#19| state) #b1 #b0)) ; $procmux$13_Y
(define-fun |riscv_mul#31| ((state |riscv_mul_s|)) (_ BitVec 1) (ite (|riscv_mul#23| state) #b0 (|riscv_mul#30| state))) ; $procmux$16_Y
(define-fun |riscv_mul#32| ((state |riscv_mul_s|)) (_ BitVec 1) (ite (|riscv_mul#2| state) #b0 (|riscv_mul#31| state))) ; $0\done[0:0]
(define-fun |riscv_mul#33| ((state |riscv_mul_s|)) (_ BitVec 32) (ite (|riscv_mul#0| state) (|riscv_mul#10| state) (|riscv_mul#9| state))) ; $procmux$54_Y
(define-fun |riscv_mul#34| ((state |riscv_mul_s|)) (_ BitVec 32) (ite (|riscv_mul#19| state) (|riscv_mul#9| state) (|riscv_mul#33| state))) ; $procmux$57_Y
(define-fun |riscv_mul#35| ((state |riscv_mul_s|)) (_ BitVec 32) (ite (|riscv_mul#23| state) (|riscv_mul#9| state) (|riscv_mul#34| state))) ; $procmux$60_Y
(define-fun |riscv_mul#36| ((state |riscv_mul_s|)) (_ BitVec 32) (ite (|riscv_mul#2| state) #b00000000000000000000000000000000 (|riscv_mul#35| state))) ; $0\op_a_latched[31:0]
(define-fun |riscv_mul#37| ((state |riscv_mul_s|)) (_ BitVec 32) (ite (|riscv_mul#0| state) (|riscv_mul#8| state) (|riscv_mul#7| state))) ; $procmux$43_Y
(define-fun |riscv_mul#38| ((state |riscv_mul_s|)) (_ BitVec 32) (ite (|riscv_mul#19| state) (|riscv_mul#7| state) (|riscv_mul#37| state))) ; $procmux$46_Y
(define-fun |riscv_mul#39| ((state |riscv_mul_s|)) (_ BitVec 32) (ite (|riscv_mul#23| state) (|riscv_mul#7| state) (|riscv_mul#38| state))) ; $procmux$49_Y
(define-fun |riscv_mul#40| ((state |riscv_mul_s|)) (_ BitVec 32) (ite (|riscv_mul#2| state) #b00000000000000000000000000000000 (|riscv_mul#39| state))) ; $0\op_b_latched[31:0]
(define-fun |riscv_mul#41| ((state |riscv_mul_s|)) (_ BitVec 4) (ite (|riscv_mul#0| state) (|riscv_mul#11| state) (|riscv_mul#3| state))) ; $procmux$32_Y
(define-fun |riscv_mul#42| ((state |riscv_mul_s|)) (_ BitVec 4) (ite (|riscv_mul#19| state) (|riscv_mul#3| state) (|riscv_mul#41| state))) ; $procmux$35_Y
(define-fun |riscv_mul#43| ((state |riscv_mul_s|)) (_ BitVec 4) (ite (|riscv_mul#23| state) (|riscv_mul#3| state) (|riscv_mul#42| state))) ; $procmux$38_Y
(define-fun |riscv_mul#44| ((state |riscv_mul_s|)) (_ BitVec 4) (ite (|riscv_mul#2| state) #b0000 (|riscv_mul#43| state))) ; $0\op_latched[3:0]
(define-fun |riscv_mul#45| ((state |riscv_mul_s|)) (_ BitVec 64) (ite (|riscv_mul#0| state) #b0000000000000000000000000000000000000000000000000000000000000000 (|riscv_mul#1| state))) ; $procmux$21_Y
(define-fun |riscv_mul#46| ((state |riscv_mul_s|)) (_ BitVec 64) (ite (|riscv_mul#19| state) (|riscv_mul#1| state) (|riscv_mul#45| state))) ; $procmux$24_Y
(define-fun |riscv_mul#47| ((state |riscv_mul_s|)) (_ BitVec 64) (bvshl (concat #b00000000000000000000000000000000 (|riscv_mul#9| state)) (concat #b00000000000000000000000000000000000000000000000000000000000 ((_ extract 4 0) (|riscv_mul#15| state))))) ; $shl$/home/vatistas/hdl_rampup/sv-learning/rtl/riscv_mul.sv:45$7_Y
(define-fun |riscv_mul#48| ((state |riscv_mul_s|)) (_ BitVec 64) (bvadd (|riscv_mul#1| state) (|riscv_mul#47| state))) ; $add$/home/vatistas/hdl_rampup/sv-learning/rtl/riscv_mul.sv:45$8_Y
(define-fun |riscv_mul#49| ((state |riscv_mul_s|)) (_ BitVec 1) ((_ extract 0 0) (bvlshr (|riscv_mul#7| state) (concat #b000000000000000000000000000 ((_ extract 4 0) (|riscv_mul#15| state)))))) ; $shiftx$/home/vatistas/hdl_rampup/sv-learning/rtl/riscv_mul.sv:0$6_Y
(define-fun |riscv_mul#50| ((state |riscv_mul_s|)) (_ BitVec 64) (ite (= ((_ extract 0 0) (|riscv_mul#49| state)) #b1) (|riscv_mul#48| state) (|riscv_mul#1| state))) ; $ternary$/home/vatistas/hdl_rampup/sv-learning/rtl/riscv_mul.sv:45$9_Y
(define-fun |riscv_mul#51| ((state |riscv_mul_s|)) (_ BitVec 64) (ite (|riscv_mul#23| state) (|riscv_mul#50| state) (|riscv_mul#46| state))) ; $procmux$27_Y
(define-fun |riscv_mul#52| ((state |riscv_mul_s|)) (_ BitVec 64) (ite (|riscv_mul#2| state) #b0000000000000000000000000000000000000000000000000000000000000000 (|riscv_mul#51| state))) ; $0\running_total[63:0]
(define-fun |riscv_mul_a| ((state |riscv_mul_s|)) Bool true)
(define-fun |riscv_mul_u| ((state |riscv_mul_s|)) Bool 
  (|riscv_mul_u 0| state)
)
(define-fun |riscv_mul_i| ((state |riscv_mul_s|)) Bool true)
(define-fun |riscv_mul_h| ((state |riscv_mul_s|)) Bool true)
(define-fun |riscv_mul_t| ((state |riscv_mul_s|) (next_state |riscv_mul_s|)) Bool (and
  (= (|riscv_mul#25| state) (|riscv_mul#15| next_state)) ; $procdff$93 \bit_idx
  (= (|riscv_mul#29| state) (|riscv_mul#14| next_state)) ; $procdff$92 \busy
  (= (|riscv_mul#32| state) (|riscv_mul#12| next_state)) ; $procdff$91 \done
  (= (|riscv_mul#36| state) (|riscv_mul#9| next_state)) ; $procdff$94 \op_a_latched
  (= (|riscv_mul#40| state) (|riscv_mul#7| next_state)) ; $procdff$95 \op_b_latched
  (= (|riscv_mul#44| state) (|riscv_mul#3| next_state)) ; $procdff$96 \op_latched
  (= (|riscv_mul#52| state) (|riscv_mul#1| next_state)) ; $procdff$97 \running_total
)) ; end of module riscv_mul
; yosys-smt2-topmod riscv_mul
; end of yosys output
